proyfinal/src/viki/013/experimentInOfficeAgust.take6.output/0c3ada11-e3ea-4097-ae3c-0426cddc0ad7.als.dat
{'cnf.clauses': '118081',
 'cnf.totvars': '69608',
 'conflict literals': '7',
 'conflicts': '6',
 'decisions': '1163',
 'memused.mb': '15.42',
 'outcome': 'UNSAT',
 'propagations': '21752',
 'restarts': '1',
 'solver.msecs': 32,
 'task.msecs': 85}
