proyfinal/src/viki/013/experimentInOfficeAgust.take6.output/0c3ada11-e3ea-4097-ae3c-0426cddc0ad7.als.out
Reading from standard input... Use '--help' for help.
============================[ Problem Statistics ]=============================
|                                                                             |
|  Number of variables:         69608                                         |
|  Number of clauses:          118081                                         |
|  Parse time:                   0.02 s                                       |
|                                                                             |
============================[ Search Statistics ]==============================
| Conflicts |          ORIGINAL         |          LEARNT          | Progress |
|           |    Vars  Clauses Literals |    Limit  Clauses Lit/Cl |          |
===============================================================================
===============================================================================
restarts              : 1
conflicts             : 6              (185 /sec)
decisions             : 1163           (0.00 % random) (35843 /sec)
propagations          : 21752          (670386 /sec)
conflict literals     : 7              (0.00 % deleted)
Memory used           : 15.42 MB
CPU time              : 0.032447 s

UNSATISFIABLE
